&CONTROL
  calculation = 'scf',
  outdir = './tmp/',
  prefix = 'AgIn2_C16',
  pseudo_dir = './pseudos/',
/
&SYSTEM
  celldm(1) = 12.59921049894873,
  celldm(3) = 0.7,
  ecutwfc = 100,
  ibrav = 7,
  nat = 6,
  nbnd = 40,
  ntyp = 2,
/
&ELECTRONS
  mixing_beta = 0.6,
/
&IONS
/
&CELL
/
ATOMIC_SPECIES
  Ag  107.8682 Ag.pbe-n-rrkjus_psl.1.0.0.UPF
  In  114.8180 In.pbe-dn-rrkjus_psl.1.0.0.UPF
ATOMIC_POSITIONS crystal
  Ag 0.000000 0.250000 0.250000
  Ag 0.000000 -0.250000 -0.250000
  In -0.500000 0.630400 -0.130400
  In -0.500000 0.369600 0.130400
  In 0.239201 0.130400 -0.369600
  In 0.760799 -0.130400 -0.630400
K_POINTS automatic
  10 10 14 0 0 0
