&CONTROL
  calculation = 'scf',
  outdir = './tmp/',
  prefix = 'AgIn2_C16',
  pseudo_dir = './pseudos/',
/
&SYSTEM
  celldm(1) = 11.58675548295483,
  celldm(3) = 0.9,
  ecutwfc = 100,
  ibrav = 7,
  nat = 6,
  nbnd = 40,
  ntyp = 2,
/
&ELECTRONS
  mixing_beta = 0.6,
/
&IONS
/
&CELL
/
ATOMIC_SPECIES
  Ag  107.8682 Ag.pbe-n-rrkjus_psl.1.0.0.UPF
  In  114.8180 In.pbe-dn-rrkjus_psl.1.0.0.UPF
ATOMIC_POSITIONS crystal
  Ag 0.000000 0.250000 0.250000
  Ag 0.000000 -0.250000 -0.250000
  In -0.500000 0.650692 -0.150692
  In -0.500000 0.349308 0.150692
  In 0.198617 0.150692 -0.349308
  In 0.801383 -0.150692 -0.650692
K_POINTS automatic
  10 10 10 0 0 0
