&CONTROL
  calculation = 'scf',
  pseudo_dir = './pseudos/',
/
&SYSTEM
  ecutwfc = 100,
  ibrav = 0,
  nat = 12,
  nbnd = 40,
  ntyp = 2,
/
&ELECTRONS
  mixing_beta = 0.6,
/
&IONS
/
&CELL
/
ATOMIC_SPECIES
  Cu  63.5460 Cu.pbe-dn-rrkjus_psl.1.0.0.UPF
  In  114.8180 In.pbe-dn-rrkjus_psl.1.0.0.UPF
ATOMIC_POSITIONS crystal
  Cu 0.000000 0.000000 0.250000
  Cu 0.500000 -0.500000 0.750000
  Cu 0.000000 0.000000 -0.250000
  Cu 0.500000 -0.500000 0.250000
  In 0.158192 0.658192 0.000000
  In 0.658192 0.158192 0.500000
  In -0.158192 0.341808 0.000000
  In 0.341808 -0.158192 0.500000
  In 0.341808 0.158192 0.000000
  In 0.841808 -0.341808 0.500000
  In 0.658192 -0.158192 0.000000
  In 0.158192 -0.658192 0.500000
K_POINTS automatic
  4 4 5 0 0 0
CELL_PARAMETERS bohr
  6.446506 0.000000 0.000000
  0.000000 6.446506 0.000000
  0.000000 0.000000 5.065112