!    ibrav = 0, nat = 432, ntyp = 2
CELL_PARAMETERS bohr
   19.3395180000000018    0.0000000000000000    0.0000000000000000
    0.0000000000000000   19.3395180000000018    0.0000000000000000
    0.0000000000000000    0.0000000000000000   20.2604480000000002
ATOMIC_SPECIES
 Cu   63.54600   Cu.pbe-dn-rrkjus_psl.1.0.0.UPF
 In  114.81800   In.pbe-dn-rrkjus_psl.1.0.0.UPF
ATOMIC_POSITIONS crystal
 Cu   0.0007140568203331  0.0000000000000000  0.0632140568203331
 Cu   0.3333333333333333  0.0000000000000000  0.0625000000000000
 Cu   0.6666666666666666  0.0000000000000000  0.0625000000000000
 Cu   0.0000000000000000  0.3333333333333333  0.0625000000000000
 Cu   0.3333333333333333  0.3333333333333333  0.0625000000000000
 Cu   0.6666666666666666  0.3333333333333333  0.0625000000000000
 Cu   0.0000000000000000  0.6666666666666666  0.0625000000000000
 Cu   0.3333333333333333  0.6666666666666666  0.0625000000000000
 Cu   0.6666666666666666  0.6666666666666666  0.0625000000000000
 Cu   0.0000000000000000  0.0000000000000000  0.3125000000000000
 Cu   0.3333333333333333  0.0000000000000000  0.3125000000000000
 Cu   0.6666666666666666  0.0000000000000000  0.3125000000000000
 Cu   0.0000000000000000  0.3333333333333333  0.3125000000000000
 Cu   0.3333333333333333  0.3333333333333333  0.3125000000000000
 Cu   0.6666666666666666  0.3333333333333333  0.3125000000000000
 Cu   0.0000000000000000  0.6666666666666666  0.3125000000000000
 Cu   0.3333333333333333  0.6666666666666666  0.3125000000000000
 Cu   0.6666666666666666  0.6666666666666666  0.3125000000000000
 Cu   0.0000000000000000  0.0000000000000000  0.5625000000000000
 Cu   0.3333333333333333  0.0000000000000000  0.5625000000000000
 Cu   0.6666666666666666  0.0000000000000000  0.5625000000000000
 Cu   0.0000000000000000  0.3333333333333333  0.5625000000000000
 Cu   0.3333333333333333  0.3333333333333333  0.5625000000000000
 Cu   0.6666666666666666  0.3333333333333333  0.5625000000000000
 Cu   0.0000000000000000  0.6666666666666666  0.5625000000000000
 Cu   0.3333333333333333  0.6666666666666666  0.5625000000000000
 Cu   0.6666666666666666  0.6666666666666666  0.5625000000000000
 Cu   0.0000000000000000  0.0000000000000000  0.8125000000000000
 Cu   0.3333333333333333  0.0000000000000000  0.8125000000000000
 Cu   0.6666666666666666  0.0000000000000000  0.8125000000000000
 Cu   0.0000000000000000  0.3333333333333333  0.8125000000000000
 Cu   0.3333333333333333  0.3333333333333333  0.8125000000000000
 Cu   0.6666666666666666  0.3333333333333333  0.8125000000000000
 Cu   0.0000000000000000  0.6666666666666666  0.8125000000000000
 Cu   0.3333333333333333  0.6666666666666666  0.8125000000000000
 Cu   0.6666666666666666  0.6666666666666666  0.8125000000000000
 Cu   0.1666666666666667  0.8333333333333334  0.1875000000000000
 Cu   0.5000000000000000  0.8333333333333334  0.1875000000000000
 Cu   0.8333333333333333  0.8333333333333334  0.1875000000000000
 Cu   0.1666666666666667  0.1666666666666667  0.1875000000000000
 Cu   0.5000000000000000  0.1666666666666667  0.1875000000000000
 Cu   0.8333333333333333  0.1666666666666667  0.1875000000000000
 Cu   0.1666666666666667  0.5000000000000000  0.1875000000000000
 Cu   0.5000000000000000  0.5000000000000000  0.1875000000000000
 Cu   0.8333333333333333  0.5000000000000000  0.1875000000000000
 Cu   0.1666666666666667  0.8333333333333334  0.4375000000000000
 Cu   0.5000000000000000  0.8333333333333334  0.4375000000000000
 Cu   0.8333333333333333  0.8333333333333334  0.4375000000000000
 Cu   0.1666666666666667  0.1666666666666667  0.4375000000000000
 Cu   0.5000000000000000  0.1666666666666667  0.4375000000000000
 Cu   0.8333333333333333  0.1666666666666667  0.4375000000000000
 Cu   0.1666666666666667  0.5000000000000000  0.4375000000000000
 Cu   0.5000000000000000  0.5000000000000000  0.4375000000000000
 Cu   0.8333333333333333  0.5000000000000000  0.4375000000000000
 Cu   0.1666666666666667  0.8333333333333334  0.6875000000000000
 Cu   0.5000000000000000  0.8333333333333334  0.6875000000000000
 Cu   0.8333333333333333  0.8333333333333334  0.6875000000000000
 Cu   0.1666666666666667  0.1666666666666667  0.6875000000000000
 Cu   0.5000000000000000  0.1666666666666667  0.6875000000000000
 Cu   0.8333333333333333  0.1666666666666667  0.6875000000000000
 Cu   0.1666666666666667  0.5000000000000000  0.6875000000000000
 Cu   0.5000000000000000  0.5000000000000000  0.6875000000000000
 Cu   0.8333333333333333  0.5000000000000000  0.6875000000000000
 Cu   0.1666666666666667  0.8333333333333334  0.9375000000000000
 Cu   0.5000000000000000  0.8333333333333334  0.9375000000000000
 Cu   0.8333333333333333  0.8333333333333334  0.9375000000000000
 Cu   0.1666666666666667  0.1666666666666667  0.9375000000000000
 Cu   0.5000000000000000  0.1666666666666667  0.9375000000000000
 Cu   0.8333333333333333  0.1666666666666667  0.9375000000000000
 Cu   0.1666666666666667  0.5000000000000000  0.9375000000000000
 Cu   0.5000000000000000  0.5000000000000000  0.9375000000000000
 Cu   0.8333333333333333  0.5000000000000000  0.9375000000000000
 Cu   0.0000000000000000  0.0000000000000000  0.9375000000000000
 Cu   0.3333333333333333  0.0000000000000000  0.9375000000000000
 Cu   0.6666666666666666  0.0000000000000000  0.9375000000000000
 Cu   0.0000000000000000  0.3333333333333333  0.9375000000000000
 Cu   0.3333333333333333  0.3333333333333333  0.9375000000000000
 Cu   0.6666666666666666  0.3333333333333333  0.9375000000000000
 Cu   0.0000000000000000  0.6666666666666666  0.9375000000000000
 Cu   0.3333333333333333  0.6666666666666666  0.9375000000000000
 Cu   0.6666666666666666  0.6666666666666666  0.9375000000000000
 Cu   0.0000000000000000  0.0000000000000000  0.1875000000000000
 Cu   0.3333333333333333  0.0000000000000000  0.1875000000000000
 Cu   0.6666666666666666  0.0000000000000000  0.1875000000000000
 Cu   0.0000000000000000  0.3333333333333333  0.1875000000000000
 Cu   0.3333333333333333  0.3333333333333333  0.1875000000000000
 Cu   0.6666666666666666  0.3333333333333333  0.1875000000000000
 Cu   0.0000000000000000  0.6666666666666666  0.1875000000000000
 Cu   0.3333333333333333  0.6666666666666666  0.1875000000000000
 Cu   0.6666666666666666  0.6666666666666666  0.1875000000000000
 Cu   0.0000000000000000  0.0000000000000000  0.4375000000000000
 Cu   0.3333333333333333  0.0000000000000000  0.4375000000000000
 Cu   0.6666666666666666  0.0000000000000000  0.4375000000000000
 Cu   0.0000000000000000  0.3333333333333333  0.4375000000000000
 Cu   0.3333333333333333  0.3333333333333333  0.4375000000000000
 Cu   0.6666666666666666  0.3333333333333333  0.4375000000000000
 Cu   0.0000000000000000  0.6666666666666666  0.4375000000000000
 Cu   0.3333333333333333  0.6666666666666666  0.4375000000000000
 Cu   0.6666666666666666  0.6666666666666666  0.4375000000000000
 Cu   0.0000000000000000  0.0000000000000000  0.6875000000000000
 Cu   0.3333333333333333  0.0000000000000000  0.6875000000000000
 Cu   0.6666666666666666  0.0000000000000000  0.6875000000000000
 Cu   0.0000000000000000  0.3333333333333333  0.6875000000000000
 Cu   0.3333333333333333  0.3333333333333333  0.6875000000000000
 Cu   0.6666666666666666  0.3333333333333333  0.6875000000000000
 Cu   0.0000000000000000  0.6666666666666666  0.6875000000000000
 Cu   0.3333333333333333  0.6666666666666666  0.6875000000000000
 Cu   0.6666666666666666  0.6666666666666666  0.6875000000000000
 Cu   0.1666666666666667  0.8333333333333334  0.0625000000000000
 Cu   0.5000000000000000  0.8333333333333334  0.0625000000000000
 Cu   0.8333333333333333  0.8333333333333334  0.0625000000000000
 Cu   0.1666666666666667  0.1666666666666667  0.0625000000000000
 Cu   0.5000000000000000  0.1666666666666667  0.0625000000000000
 Cu   0.8333333333333333  0.1666666666666667  0.0625000000000000
 Cu   0.1666666666666667  0.5000000000000000  0.0625000000000000
 Cu   0.5000000000000000  0.5000000000000000  0.0625000000000000
 Cu   0.8333333333333333  0.5000000000000000  0.0625000000000000
 Cu   0.1666666666666667  0.8333333333333334  0.3125000000000000
 Cu   0.5000000000000000  0.8333333333333334  0.3125000000000000
 Cu   0.8333333333333333  0.8333333333333334  0.3125000000000000
 Cu   0.1666666666666667  0.1666666666666667  0.3125000000000000
 Cu   0.5000000000000000  0.1666666666666667  0.3125000000000000
 Cu   0.8333333333333333  0.1666666666666667  0.3125000000000000
 Cu   0.1666666666666667  0.5000000000000000  0.3125000000000000
 Cu   0.5000000000000000  0.5000000000000000  0.3125000000000000
 Cu   0.8333333333333333  0.5000000000000000  0.3125000000000000
 Cu   0.1666666666666667  0.8333333333333334  0.5625000000000000
 Cu   0.5000000000000000  0.8333333333333334  0.5625000000000000
 Cu   0.8333333333333333  0.8333333333333334  0.5625000000000000
 Cu   0.1666666666666667  0.1666666666666667  0.5625000000000000
 Cu   0.5000000000000000  0.1666666666666667  0.5625000000000000
 Cu   0.8333333333333333  0.1666666666666667  0.5625000000000000
 Cu   0.1666666666666667  0.5000000000000000  0.5625000000000000
 Cu   0.5000000000000000  0.5000000000000000  0.5625000000000000
 Cu   0.8333333333333333  0.5000000000000000  0.5625000000000000
 Cu   0.1666666666666667  0.8333333333333334  0.8125000000000000
 Cu   0.5000000000000000  0.8333333333333334  0.8125000000000000
 Cu   0.8333333333333333  0.8333333333333334  0.8125000000000000
 Cu   0.1666666666666667  0.1666666666666667  0.8125000000000000
 Cu   0.5000000000000000  0.1666666666666667  0.8125000000000000
 Cu   0.8333333333333333  0.1666666666666667  0.8125000000000000
 Cu   0.1666666666666667  0.5000000000000000  0.8125000000000000
 Cu   0.5000000000000000  0.5000000000000000  0.8125000000000000
 Cu   0.8333333333333333  0.5000000000000000  0.8125000000000000
 In   0.0527306666666667  0.2193973333333334  0.0000000000000000
 In   0.3860640000000000  0.2193973333333334  0.0000000000000000
 In   0.7193973333333333  0.2193973333333334  0.0000000000000000
 In   0.0527306666666667  0.5527306666666667  0.0000000000000000
 In   0.3860640000000000  0.5527306666666667  0.0000000000000000
 In   0.7193973333333333  0.5527306666666667  0.0000000000000000
 In   0.0527306666666667  0.8860640000000000  0.0000000000000000
 In   0.3860640000000000  0.8860640000000000  0.0000000000000000
 In   0.7193973333333333  0.8860640000000000  0.0000000000000000
 In   0.0527306666666667  0.2193973333333334  0.2500000000000000
 In   0.3860640000000000  0.2193973333333334  0.2500000000000000
 In   0.7193973333333333  0.2193973333333334  0.2500000000000000
 In   0.0527306666666667  0.5527306666666667  0.2500000000000000
 In   0.3860640000000000  0.5527306666666667  0.2500000000000000
 In   0.7193973333333333  0.5527306666666667  0.2500000000000000
 In   0.0527306666666667  0.8860640000000000  0.2500000000000000
 In   0.3860640000000000  0.8860640000000000  0.2500000000000000
 In   0.7193973333333333  0.8860640000000000  0.2500000000000000
 In   0.0527306666666667  0.2193973333333334  0.5000000000000000
 In   0.3860640000000000  0.2193973333333334  0.5000000000000000
 In   0.7193973333333333  0.2193973333333334  0.5000000000000000
 In   0.0527306666666667  0.5527306666666667  0.5000000000000000
 In   0.3860640000000000  0.5527306666666667  0.5000000000000000
 In   0.7193973333333333  0.5527306666666667  0.5000000000000000
 In   0.0527306666666667  0.8860640000000000  0.5000000000000000
 In   0.3860640000000000  0.8860640000000000  0.5000000000000000
 In   0.7193973333333333  0.8860640000000000  0.5000000000000000
 In   0.0527306666666667  0.2193973333333334  0.7500000000000000
 In   0.3860640000000000  0.2193973333333334  0.7500000000000000
 In   0.7193973333333333  0.2193973333333334  0.7500000000000000
 In   0.0527306666666667  0.5527306666666667  0.7500000000000000
 In   0.3860640000000000  0.5527306666666667  0.7500000000000000
 In   0.7193973333333333  0.5527306666666667  0.7500000000000000
 In   0.0527306666666667  0.8860640000000000  0.7500000000000000
 In   0.3860640000000000  0.8860640000000000  0.7500000000000000
 In   0.7193973333333333  0.8860640000000000  0.7500000000000000
 In   0.2193973333333334  0.0527306666666667  0.1250000000000000
 In   0.5527306666666667  0.0527306666666667  0.1250000000000000
 In   0.8860640000000000  0.0527306666666667  0.1250000000000000
 In   0.2193973333333334  0.3860640000000000  0.1250000000000000
 In   0.5527306666666667  0.3860640000000000  0.1250000000000000
 In   0.8860640000000000  0.3860640000000000  0.1250000000000000
 In   0.2193973333333334  0.7193973333333333  0.1250000000000000
 In   0.5527306666666667  0.7193973333333333  0.1250000000000000
 In   0.8860640000000000  0.7193973333333333  0.1250000000000000
 In   0.2193973333333334  0.0527306666666667  0.3750000000000000
 In   0.5527306666666667  0.0527306666666667  0.3750000000000000
 In   0.8860640000000000  0.0527306666666667  0.3750000000000000
 In   0.2193973333333334  0.3860640000000000  0.3750000000000000
 In   0.5527306666666667  0.3860640000000000  0.3750000000000000
 In   0.8860640000000000  0.3860640000000000  0.3750000000000000
 In   0.2193973333333334  0.7193973333333333  0.3750000000000000
 In   0.5527306666666667  0.7193973333333333  0.3750000000000000
 In   0.8860640000000000  0.7193973333333333  0.3750000000000000
 In   0.2193973333333334  0.0527306666666667  0.6250000000000000
 In   0.5527306666666667  0.0527306666666667  0.6250000000000000
 In   0.8860640000000000  0.0527306666666667  0.6250000000000000
 In   0.2193973333333334  0.3860640000000000  0.6250000000000000
 In   0.5527306666666667  0.3860640000000000  0.6250000000000000
 In   0.8860640000000000  0.3860640000000000  0.6250000000000000
 In   0.2193973333333334  0.7193973333333333  0.6250000000000000
 In   0.5527306666666667  0.7193973333333333  0.6250000000000000
 In   0.8860640000000000  0.7193973333333333  0.6250000000000000
 In   0.2193973333333334  0.0527306666666667  0.8750000000000000
 In   0.5527306666666667  0.0527306666666667  0.8750000000000000
 In   0.8860640000000000  0.0527306666666667  0.8750000000000000
 In   0.2193973333333334  0.3860640000000000  0.8750000000000000
 In   0.5527306666666667  0.3860640000000000  0.8750000000000000
 In   0.8860640000000000  0.3860640000000000  0.8750000000000000
 In   0.2193973333333334  0.7193973333333333  0.8750000000000000
 In   0.5527306666666667  0.7193973333333333  0.8750000000000000
 In   0.8860640000000000  0.7193973333333333  0.8750000000000000
 In   0.9472693333333333  0.1139360000000000  0.0000000000000000
 In   0.2806026666666667  0.1139360000000000  0.0000000000000000
 In   0.6139359999999999  0.1139360000000000  0.0000000000000000
 In   0.9472693333333333  0.4472693333333333  0.0000000000000000
 In   0.2806026666666667  0.4472693333333333  0.0000000000000000
 In   0.6139359999999999  0.4472693333333333  0.0000000000000000
 In   0.9472693333333333  0.7806026666666666  0.0000000000000000
 In   0.2806026666666667  0.7806026666666666  0.0000000000000000
 In   0.6139359999999999  0.7806026666666666  0.0000000000000000
 In   0.9472693333333333  0.1139360000000000  0.2500000000000000
 In   0.2806026666666667  0.1139360000000000  0.2500000000000000
 In   0.6139359999999999  0.1139360000000000  0.2500000000000000
 In   0.9472693333333333  0.4472693333333333  0.2500000000000000
 In   0.2806026666666667  0.4472693333333333  0.2500000000000000
 In   0.6139359999999999  0.4472693333333333  0.2500000000000000
 In   0.9472693333333333  0.7806026666666666  0.2500000000000000
 In   0.2806026666666667  0.7806026666666666  0.2500000000000000
 In   0.6139359999999999  0.7806026666666666  0.2500000000000000
 In   0.9472693333333333  0.1139360000000000  0.5000000000000000
 In   0.2806026666666667  0.1139360000000000  0.5000000000000000
 In   0.6139359999999999  0.1139360000000000  0.5000000000000000
 In   0.9472693333333333  0.4472693333333333  0.5000000000000000
 In   0.2806026666666667  0.4472693333333333  0.5000000000000000
 In   0.6139359999999999  0.4472693333333333  0.5000000000000000
 In   0.9472693333333333  0.7806026666666666  0.5000000000000000
 In   0.2806026666666667  0.7806026666666666  0.5000000000000000
 In   0.6139359999999999  0.7806026666666666  0.5000000000000000
 In   0.9472693333333333  0.1139360000000000  0.7500000000000000
 In   0.2806026666666667  0.1139360000000000  0.7500000000000000
 In   0.6139359999999999  0.1139360000000000  0.7500000000000000
 In   0.9472693333333333  0.4472693333333333  0.7500000000000000
 In   0.2806026666666667  0.4472693333333333  0.7500000000000000
 In   0.6139359999999999  0.4472693333333333  0.7500000000000000
 In   0.9472693333333333  0.7806026666666666  0.7500000000000000
 In   0.2806026666666667  0.7806026666666666  0.7500000000000000
 In   0.6139359999999999  0.7806026666666666  0.7500000000000000
 In   0.1139360000000000  0.9472693333333333  0.1250000000000000
 In   0.4472693333333333  0.9472693333333333  0.1250000000000000
 In   0.7806026666666666  0.9472693333333333  0.1250000000000000
 In   0.1139360000000000  0.2806026666666667  0.1250000000000000
 In   0.4472693333333333  0.2806026666666667  0.1250000000000000
 In   0.7806026666666666  0.2806026666666667  0.1250000000000000
 In   0.1139360000000000  0.6139359999999999  0.1250000000000000
 In   0.4472693333333333  0.6139359999999999  0.1250000000000000
 In   0.7806026666666666  0.6139359999999999  0.1250000000000000
 In   0.1139360000000000  0.9472693333333333  0.3750000000000000
 In   0.4472693333333333  0.9472693333333333  0.3750000000000000
 In   0.7806026666666666  0.9472693333333333  0.3750000000000000
 In   0.1139360000000000  0.2806026666666667  0.3750000000000000
 In   0.4472693333333333  0.2806026666666667  0.3750000000000000
 In   0.7806026666666666  0.2806026666666667  0.3750000000000000
 In   0.1139360000000000  0.6139359999999999  0.3750000000000000
 In   0.4472693333333333  0.6139359999999999  0.3750000000000000
 In   0.7806026666666666  0.6139359999999999  0.3750000000000000
 In   0.1139360000000000  0.9472693333333333  0.6250000000000000
 In   0.4472693333333333  0.9472693333333333  0.6250000000000000
 In   0.7806026666666666  0.9472693333333333  0.6250000000000000
 In   0.1139360000000000  0.2806026666666667  0.6250000000000000
 In   0.4472693333333333  0.2806026666666667  0.6250000000000000
 In   0.7806026666666666  0.2806026666666667  0.6250000000000000
 In   0.1139360000000000  0.6139359999999999  0.6250000000000000
 In   0.4472693333333333  0.6139359999999999  0.6250000000000000
 In   0.7806026666666666  0.6139359999999999  0.6250000000000000
 In   0.1139360000000000  0.9472693333333333  0.8750000000000000
 In   0.4472693333333333  0.9472693333333333  0.8750000000000000
 In   0.7806026666666666  0.9472693333333333  0.8750000000000000
 In   0.1139360000000000  0.2806026666666667  0.8750000000000000
 In   0.4472693333333333  0.2806026666666667  0.8750000000000000
 In   0.7806026666666666  0.2806026666666667  0.8750000000000000
 In   0.1139360000000000  0.6139359999999999  0.8750000000000000
 In   0.4472693333333333  0.6139359999999999  0.8750000000000000
 In   0.7806026666666666  0.6139359999999999  0.8750000000000000
 In   0.1139360000000000  0.0527306666666667  0.0000000000000000
 In   0.4472693333333333  0.0527306666666667  0.0000000000000000
 In   0.7806026666666666  0.0527306666666667  0.0000000000000000
 In   0.1139360000000000  0.3860640000000000  0.0000000000000000
 In   0.4472693333333333  0.3860640000000000  0.0000000000000000
 In   0.7806026666666666  0.3860640000000000  0.0000000000000000
 In   0.1139360000000000  0.7193973333333333  0.0000000000000000
 In   0.4472693333333333  0.7193973333333333  0.0000000000000000
 In   0.7806026666666666  0.7193973333333333  0.0000000000000000
 In   0.1139360000000000  0.0527306666666667  0.2500000000000000
 In   0.4472693333333333  0.0527306666666667  0.2500000000000000
 In   0.7806026666666666  0.0527306666666667  0.2500000000000000
 In   0.1139360000000000  0.3860640000000000  0.2500000000000000
 In   0.4472693333333333  0.3860640000000000  0.2500000000000000
 In   0.7806026666666666  0.3860640000000000  0.2500000000000000
 In   0.1139360000000000  0.7193973333333333  0.2500000000000000
 In   0.4472693333333333  0.7193973333333333  0.2500000000000000
 In   0.7806026666666666  0.7193973333333333  0.2500000000000000
 In   0.1139360000000000  0.0527306666666667  0.5000000000000000
 In   0.4472693333333333  0.0527306666666667  0.5000000000000000
 In   0.7806026666666666  0.0527306666666667  0.5000000000000000
 In   0.1139360000000000  0.3860640000000000  0.5000000000000000
 In   0.4472693333333333  0.3860640000000000  0.5000000000000000
 In   0.7806026666666666  0.3860640000000000  0.5000000000000000
 In   0.1139360000000000  0.7193973333333333  0.5000000000000000
 In   0.4472693333333333  0.7193973333333333  0.5000000000000000
 In   0.7806026666666666  0.7193973333333333  0.5000000000000000
 In   0.1139360000000000  0.0527306666666667  0.7500000000000000
 In   0.4472693333333333  0.0527306666666667  0.7500000000000000
 In   0.7806026666666666  0.0527306666666667  0.7500000000000000
 In   0.1139360000000000  0.3860640000000000  0.7500000000000000
 In   0.4472693333333333  0.3860640000000000  0.7500000000000000
 In   0.7806026666666666  0.3860640000000000  0.7500000000000000
 In   0.1139360000000000  0.7193973333333333  0.7500000000000000
 In   0.4472693333333333  0.7193973333333333  0.7500000000000000
 In   0.7806026666666666  0.7193973333333333  0.7500000000000000
 In   0.2806026666666667  0.8860640000000000  0.1250000000000000
 In   0.6139359999999999  0.8860640000000000  0.1250000000000000
 In   0.9472693333333333  0.8860640000000000  0.1250000000000000
 In   0.2806026666666667  0.2193973333333334  0.1250000000000000
 In   0.6139359999999999  0.2193973333333334  0.1250000000000000
 In   0.9472693333333333  0.2193973333333334  0.1250000000000000
 In   0.2806026666666667  0.5527306666666667  0.1250000000000000
 In   0.6139359999999999  0.5527306666666667  0.1250000000000000
 In   0.9472693333333333  0.5527306666666667  0.1250000000000000
 In   0.2806026666666667  0.8860640000000000  0.3750000000000000
 In   0.6139359999999999  0.8860640000000000  0.3750000000000000
 In   0.9472693333333333  0.8860640000000000  0.3750000000000000
 In   0.2806026666666667  0.2193973333333334  0.3750000000000000
 In   0.6139359999999999  0.2193973333333334  0.3750000000000000
 In   0.9472693333333333  0.2193973333333334  0.3750000000000000
 In   0.2806026666666667  0.5527306666666667  0.3750000000000000
 In   0.6139359999999999  0.5527306666666667  0.3750000000000000
 In   0.9472693333333333  0.5527306666666667  0.3750000000000000
 In   0.2806026666666667  0.8860640000000000  0.6250000000000000
 In   0.6139359999999999  0.8860640000000000  0.6250000000000000
 In   0.9472693333333333  0.8860640000000000  0.6250000000000000
 In   0.2806026666666667  0.2193973333333334  0.6250000000000000
 In   0.6139359999999999  0.2193973333333334  0.6250000000000000
 In   0.9472693333333333  0.2193973333333334  0.6250000000000000
 In   0.2806026666666667  0.5527306666666667  0.6250000000000000
 In   0.6139359999999999  0.5527306666666667  0.6250000000000000
 In   0.9472693333333333  0.5527306666666667  0.6250000000000000
 In   0.2806026666666667  0.8860640000000000  0.8750000000000000
 In   0.6139359999999999  0.8860640000000000  0.8750000000000000
 In   0.9472693333333333  0.8860640000000000  0.8750000000000000
 In   0.2806026666666667  0.2193973333333334  0.8750000000000000
 In   0.6139359999999999  0.2193973333333334  0.8750000000000000
 In   0.9472693333333333  0.2193973333333334  0.8750000000000000
 In   0.2806026666666667  0.5527306666666667  0.8750000000000000
 In   0.6139359999999999  0.5527306666666667  0.8750000000000000
 In   0.9472693333333333  0.5527306666666667  0.8750000000000000
 In   0.2193973333333334  0.9472693333333333  0.0000000000000000
 In   0.5527306666666667  0.9472693333333333  0.0000000000000000
 In   0.8860640000000000  0.9472693333333333  0.0000000000000000
 In   0.2193973333333334  0.2806026666666667  0.0000000000000000
 In   0.5527306666666667  0.2806026666666667  0.0000000000000000
 In   0.8860640000000000  0.2806026666666667  0.0000000000000000
 In   0.2193973333333334  0.6139359999999999  0.0000000000000000
 In   0.5527306666666667  0.6139359999999999  0.0000000000000000
 In   0.8860640000000000  0.6139359999999999  0.0000000000000000
 In   0.2193973333333334  0.9472693333333333  0.2500000000000000
 In   0.5527306666666667  0.9472693333333333  0.2500000000000000
 In   0.8860640000000000  0.9472693333333333  0.2500000000000000
 In   0.2193973333333334  0.2806026666666667  0.2500000000000000
 In   0.5527306666666667  0.2806026666666667  0.2500000000000000
 In   0.8860640000000000  0.2806026666666667  0.2500000000000000
 In   0.2193973333333334  0.6139359999999999  0.2500000000000000
 In   0.5527306666666667  0.6139359999999999  0.2500000000000000
 In   0.8860640000000000  0.6139359999999999  0.2500000000000000
 In   0.2193973333333334  0.9472693333333333  0.5000000000000000
 In   0.5527306666666667  0.9472693333333333  0.5000000000000000
 In   0.8860640000000000  0.9472693333333333  0.5000000000000000
 In   0.2193973333333334  0.2806026666666667  0.5000000000000000
 In   0.5527306666666667  0.2806026666666667  0.5000000000000000
 In   0.8860640000000000  0.2806026666666667  0.5000000000000000
 In   0.2193973333333334  0.6139359999999999  0.5000000000000000
 In   0.5527306666666667  0.6139359999999999  0.5000000000000000
 In   0.8860640000000000  0.6139359999999999  0.5000000000000000
 In   0.2193973333333334  0.9472693333333333  0.7500000000000000
 In   0.5527306666666667  0.9472693333333333  0.7500000000000000
 In   0.8860640000000000  0.9472693333333333  0.7500000000000000
 In   0.2193973333333334  0.2806026666666667  0.7500000000000000
 In   0.5527306666666667  0.2806026666666667  0.7500000000000000
 In   0.8860640000000000  0.2806026666666667  0.7500000000000000
 In   0.2193973333333334  0.6139359999999999  0.7500000000000000
 In   0.5527306666666667  0.6139359999999999  0.7500000000000000
 In   0.8860640000000000  0.6139359999999999  0.7500000000000000
 In   0.0527306666666667  0.7806026666666667  0.1250000000000000
 In   0.3860640000000000  0.7806026666666667  0.1250000000000000
 In   0.7193973333333333  0.7806026666666667  0.1250000000000000
 In   0.0527306666666667  0.1139360000000000  0.1250000000000000
 In   0.3860640000000000  0.1139360000000000  0.1250000000000000
 In   0.7193973333333333  0.1139360000000000  0.1250000000000000
 In   0.0527306666666667  0.4472693333333333  0.1250000000000000
 In   0.3860640000000000  0.4472693333333333  0.1250000000000000
 In   0.7193973333333333  0.4472693333333333  0.1250000000000000
 In   0.0527306666666667  0.7806026666666667  0.3750000000000000
 In   0.3860640000000000  0.7806026666666667  0.3750000000000000
 In   0.7193973333333333  0.7806026666666667  0.3750000000000000
 In   0.0527306666666667  0.1139360000000000  0.3750000000000000
 In   0.3860640000000000  0.1139360000000000  0.3750000000000000
 In   0.7193973333333333  0.1139360000000000  0.3750000000000000
 In   0.0527306666666667  0.4472693333333333  0.3750000000000000
 In   0.3860640000000000  0.4472693333333333  0.3750000000000000
 In   0.7193973333333333  0.4472693333333333  0.3750000000000000
 In   0.0527306666666667  0.7806026666666667  0.6250000000000000
 In   0.3860640000000000  0.7806026666666667  0.6250000000000000
 In   0.7193973333333333  0.7806026666666667  0.6250000000000000
 In   0.0527306666666667  0.1139360000000000  0.6250000000000000
 In   0.3860640000000000  0.1139360000000000  0.6250000000000000
 In   0.7193973333333333  0.1139360000000000  0.6250000000000000
 In   0.0527306666666667  0.4472693333333333  0.6250000000000000
 In   0.3860640000000000  0.4472693333333333  0.6250000000000000
 In   0.7193973333333333  0.4472693333333333  0.6250000000000000
 In   0.0527306666666667  0.7806026666666667  0.8750000000000000
 In   0.3860640000000000  0.7806026666666667  0.8750000000000000
 In   0.7193973333333333  0.7806026666666667  0.8750000000000000
 In   0.0527306666666667  0.1139360000000000  0.8750000000000000
 In   0.3860640000000000  0.1139360000000000  0.8750000000000000
 In   0.7193973333333333  0.1139360000000000  0.8750000000000000
 In   0.0527306666666667  0.4472693333333333  0.8750000000000000
 In   0.3860640000000000  0.4472693333333333  0.8750000000000000
 In   0.7193973333333333  0.4472693333333333  0.8750000000000000