&CONTROL
  calculation = 'scf',
  pseudo_dir = './pseudos/',
/
&SYSTEM
  degauss = 0.01,
  ecutwfc = 100,
  ibrav = 0,
  nat = 3,
  nbnd = 40,
  occupations = 'smearing',
  smearing = 'gaussian',
  ntyp = 2,
/
&ELECTRONS
  mixing_beta = 0.6,
/
&IONS
/
&CELL
/
ATOMIC_SPECIES
  Cu  63.5460 Cu.pbe-dn-rrkjus_psl.1.0.0.UPF
  In  114.8180 In.pbe-dn-rrkjus_psl.1.0.0.UPF
ATOMIC_POSITIONS crystal
  Cu 0.000000 0.000000 0.000000
  In 0.250000 0.250000 0.250000
  In -0.250000 -0.250000 -0.250000
K_POINTS automatic
  10 10 10 1 1 1
CELL_PARAMETERS angstrom
  12.115671 12.115671 0.000000
  0.000000 12.115671 12.115671
  12.115671 0.000000 12.115671