 &control
    calculation = 'scf'
    tprnfor = .true.
    tstress = .true.
    pseudo_dir = './pseudos/'
    disk_io = 'none'
 /
 &system
    ibrav = 0
    nat = 96
    ntyp = 2
    ecutwfc = 60.0
 /
 &electrons
    diagonalization = 'david'
    conv_thr = 1.0d-7
 /
K_POINTS automatic
4 4 4 1 1 1
