!    ibrav = 0, nat = 96, ntyp = 2
CELL_PARAMETERS bohr
   24.2313420000000015    0.0000000000000000    0.0000000000000000
    0.0000000000000000   24.2313420000000015    0.0000000000000000
    0.0000000000000000    0.0000000000000000   24.2313420000000015
ATOMIC_SPECIES
 Cu   63.54600   Cu.pbe-dn-rrkjus_psl.1.0.0.UPF
 In  114.81800   In.pbe-dn-rrkjus_psl.1.0.0.UPF
ATOMIC_POSITIONS crystal
 Cu   0.0000000000000000  0.0000000000000000  0.0000000000000000
 Cu   0.5000000000000000  0.0000000000000000  0.0000000000000000
 Cu   0.0000000000000000  0.5000000000000000  0.0000000000000000
 Cu   0.5000000000000000  0.5000000000000000  0.0000000000000000
 Cu   0.0000000000000000  0.0000000000000000  0.5000000000000000
 Cu   0.5000000000000000  0.0000000000000000  0.5000000000000000
 Cu   0.0000000000000000  0.5000000000000000  0.5000000000000000
 Cu   0.5000000000000000  0.5000000000000000  0.5000000000000000
 Cu   0.2500000000000000  0.0000000000000000  0.2500000000000000
 Cu   0.7500000000000000  0.0000000000000000  0.2500000000000000
 Cu   0.2500000000000000  0.5000000000000000  0.2500000000000000
 Cu   0.7500000000000000  0.5000000000000000  0.2500000000000000
 Cu   0.2500000000000000  0.0000000000000000  0.7500000000000000
 Cu   0.7500000000000000  0.0000000000000000  0.7500000000000000
 Cu   0.2500000000000000  0.5000000000000000  0.7500000000000000
 Cu   0.7500000000000000  0.5000000000000000  0.7500000000000000
 Cu   0.0000000000000000  0.2500000000000000  0.2500000000000000
 Cu   0.5000000000000000  0.2500000000000000  0.2500000000000000
 Cu   0.0000000000000000  0.7500000000000000  0.2500000000000000
 Cu   0.5000000000000000  0.7500000000000000  0.2500000000000000
 Cu   0.0000000000000000  0.2500000000000000  0.7500000000000000
 Cu   0.5000000000000000  0.2500000000000000  0.7500000000000000
 Cu   0.0000000000000000  0.7500000000000000  0.7500000000000000
 Cu   0.5000000000000000  0.7500000000000000  0.7500000000000000
 Cu   0.2500000000000000  0.2500000000000000  0.0000000000000000
 Cu   0.7500000000000000  0.2500000000000000  0.0000000000000000
 Cu   0.2500000000000000  0.7500000000000000  0.0000000000000000
 Cu   0.7500000000000000  0.7500000000000000  0.0000000000000000
 Cu   0.2500000000000000  0.2500000000000000  0.5000000000000000
 Cu   0.7500000000000000  0.2500000000000000  0.5000000000000000
 Cu   0.2500000000000000  0.7500000000000000  0.5000000000000000
 Cu   0.7500000000000000  0.7500000000000000  0.5000000000000000
 In   0.3750000000000000  0.1250000000000000  0.1250000000000000
 In   0.8750000000000000  0.1250000000000000  0.1250000000000000
 In   0.3750000000000000  0.6250000000000000  0.1250000000000000
 In   0.8750000000000000  0.6250000000000000  0.1250000000000000
 In   0.3750000000000000  0.1250000000000000  0.6250000000000000
 In   0.8750000000000000  0.1250000000000000  0.6250000000000000
 In   0.3750000000000000  0.6250000000000000  0.6250000000000000
 In   0.8750000000000000  0.6250000000000000  0.6250000000000000
 In   0.1250000000000000  0.1250000000000000  0.3750000000000000
 In   0.6250000000000000  0.1250000000000000  0.3750000000000000
 In   0.1250000000000000  0.6250000000000000  0.3750000000000000
 In   0.6250000000000000  0.6250000000000000  0.3750000000000000
 In   0.1250000000000000  0.1250000000000000  0.8750000000000000
 In   0.6250000000000000  0.1250000000000000  0.8750000000000000
 In   0.1250000000000000  0.6250000000000000  0.8750000000000000
 In   0.6250000000000000  0.6250000000000000  0.8750000000000000
 In   0.3750000000000000  0.3750000000000000  0.3750000000000000
 In   0.8750000000000000  0.3750000000000000  0.3750000000000000
 In   0.3750000000000000  0.8750000000000000  0.3750000000000000
 In   0.8750000000000000  0.8750000000000000  0.3750000000000000
 In   0.3750000000000000  0.3750000000000000  0.8750000000000000
 In   0.8750000000000000  0.3750000000000000  0.8750000000000000
 In   0.3750000000000000  0.8750000000000000  0.8750000000000000
 In   0.8750000000000000  0.8750000000000000  0.8750000000000000
 In   0.1250000000000000  0.3750000000000000  0.1250000000000000
 In   0.6250000000000000  0.3750000000000000  0.1250000000000000
 In   0.1250000000000000  0.8750000000000000  0.1250000000000000
 In   0.6250000000000000  0.8750000000000000  0.1250000000000000
 In   0.1250000000000000  0.3750000000000000  0.6250000000000000
 In   0.6250000000000000  0.3750000000000000  0.6250000000000000
 In   0.1250000000000000  0.8750000000000000  0.6250000000000000
 In   0.6250000000000000  0.8750000000000000  0.6250000000000000
 In   0.1250000000000000  0.3750000000000000  0.3750000000000000
 In   0.6250000000000000  0.3750000000000000  0.3750000000000000
 In   0.1250000000000000  0.8750000000000000  0.3750000000000000
 In   0.6250000000000000  0.8750000000000000  0.3750000000000000
 In   0.1250000000000000  0.3750000000000000  0.8750000000000000
 In   0.6250000000000000  0.3750000000000000  0.8750000000000000
 In   0.1250000000000000  0.8750000000000000  0.8750000000000000
 In   0.6250000000000000  0.8750000000000000  0.8750000000000000
 In   0.3750000000000000  0.3750000000000000  0.1250000000000000
 In   0.8750000000000000  0.3750000000000000  0.1250000000000000
 In   0.3750000000000000  0.8750000000000000  0.1250000000000000
 In   0.8750000000000000  0.8750000000000000  0.1250000000000000
 In   0.3750000000000000  0.3750000000000000  0.6250000000000000
 In   0.8750000000000000  0.3750000000000000  0.6250000000000000
 In   0.3750000000000000  0.8750000000000000  0.6250000000000000
 In   0.8750000000000000  0.8750000000000000  0.6250000000000000
 In   0.1250000000000000  0.1250000000000000  0.1250000000000000
 In   0.6250000000000000  0.1250000000000000  0.1250000000000000
 In   0.1250000000000000  0.6250000000000000  0.1250000000000000
 In   0.6250000000000000  0.6250000000000000  0.1250000000000000
 In   0.1250000000000000  0.1250000000000000  0.6250000000000000
 In   0.6250000000000000  0.1250000000000000  0.6250000000000000
 In   0.1250000000000000  0.6250000000000000  0.6250000000000000
 In   0.6250000000000000  0.6250000000000000  0.6250000000000000
 In   0.3750000000000000  0.1250000000000000  0.3750000000000000
 In   0.8750000000000000  0.1250000000000000  0.3750000000000000
 In   0.3750000000000000  0.6250000000000000  0.3750000000000000
 In   0.8750000000000000  0.6250000000000000  0.3750000000000000
 In   0.3750000000000000  0.1250000000000000  0.8750000000000000
 In   0.8750000000000000  0.1250000000000000  0.8750000000000000
 In   0.3750000000000000  0.6250000000000000  0.8750000000000000
 In   0.8750000000000000  0.6250000000000000  0.8750000000000000