&CONTROL
  calculation = 'relax',
  etot_conv_thr = 0.0001,
  forc_conv_thr = 0.01,
  outdir = './tmp/',
  prefix = 'AgIn2_Relax',
  pseudo_dir = './pseudos/',
/
&SYSTEM
  celldm(1) = 13.288436416660632,
  celldm(3) = 0.8142857142857143,
  ecutwfc = 100,
  ibrav = 7,
  nat = 6,
  ntyp = 2,
/
&ELECTRONS
  conv_thr = 1e-06,
/
&IONS
/
&CELL
/
ATOMIC_SPECIES
  Ag  107.8682 Ag.pbe-n-rrkjus_psl.1.0.0.UPF
  In  114.8180 In.pbe-dn-rrkjus_psl.1.0.0.UPF
ATOMIC_POSITIONS crystal
  Ag 0.000000 0.250000 0.250000
  Ag 0.000000 -0.250000 -0.250000
  In -0.500000 0.650692 -0.150692
  In -0.500000 0.349308 0.150692
  In 0.198617 0.150692 -0.349308
  In 0.801383 -0.150692 -0.650692
K_POINTS automatic
  10 10 10 0 0 0
