&CONTROL
  calculation = 'scf',
  outdir = './tmp/',
  prefix = 'AuIn2_C16',
  pseudo_dir = './pseudos/',
/
&SYSTEM
  celldm(1) = 13.938610212070584,
  celldm(3) = 0.7,
  ecutwfc = 100,
  ibrav = 7,
  nat = 6,
  nbnd = 40,
  ntyp = 2,
/
&ELECTRONS
  mixing_beta = 0.6,
/
&IONS
/
&CELL
/
ATOMIC_SPECIES
  Au  196.9666 Au.pbe-n-rrkjus_psl.1.0.0.UPF
  In  114.8180 In.pbe-dn-rrkjus_psl.1.0.0.UPF
ATOMIC_POSITIONS crystal
  Au 0.000000 0.250000 0.250000
  Au 0.000000 -0.250000 -0.250000
  In -0.500000 0.648881 -0.148881
  In -0.500000 0.351119 0.148881
  In 0.202238 0.148881 -0.351119
  In 0.797762 -0.148881 -0.648881
K_POINTS automatic
  10 10 10 0 0 0
